60
1 0 1
2 0 11
2 1 10
3 1 2
4 1 13
5 0 8
5 2 4
5 4 9
6 0 3
6 1 8
6 3 3
7 3 5
7 5 11
8 0 12
8 1 1
8 3 9
8 4 10
8 5 10
8 6 5
8 7 8
9 0 10
9 7 3
10 0 10
10 4 10
10 6 3
10 8 2
10 9 13
11 0 12
11 1 4
11 4 9
11 5 12
11 10 6
12 0 11
12 4 1
12 9 12
13 1 4
13 2 12
13 4 11
13 5 3
13 7 4
13 11 13
14 0 10
14 3 9
14 5 7
14 6 2
14 7 9
14 9 7
14 10 13
14 11 4
14 12 3
15 0 3
15 1 4
15 3 3
15 5 3
15 7 5
15 9 1
15 10 12
15 11 13
15 14 1
16 4 10
16 5 4
16 7 8
16 8 3
16 10 7
16 11 13
16 12 1
17 2 2
17 4 4
17 11 4
17 15 11
18 0 6
18 1 5
18 2 13
18 6 1
18 7 6
18 9 11
18 12 4
18 13 9
18 14 13
19 0 13
19 2 13
19 3 12
19 8 9
19 11 6
19 13 13
19 15 13
19 17 10
19 18 8
20 0 9
20 3 8
20 7 11
20 9 6
20 14 1
20 15 6
20 17 3
21 2 6
21 3 1
21 4 9
21 7 12
21 8 7
21 10 1
21 11 6
21 12 7
21 18 5
22 3 8
22 6 10
22 7 11
22 8 10
22 11 1
22 12 7
22 13 11
22 15 9
22 16 9
22 17 2
22 18 4
22 20 6
23 0 2
23 1 4
23 8 12
23 9 12
23 12 1
23 13 6
23 17 4
23 18 8
23 22 4
24 0 10
24 2 7
24 5 2
24 7 8
24 10 5
24 11 6
24 14 13
24 16 4
24 17 1
24 20 11
24 21 11
25 2 5
25 3 3
25 5 12
25 6 7
25 7 10
25 8 7
25 10 11
25 12 1
25 13 1
25 15 11
25 20 9
25 21 7
25 22 9
25 24 4
26 1 11
26 6 7
26 7 2
26 8 3
26 9 6
26 11 3
26 12 11
26 13 2
26 14 11
26 15 9
26 16 3
26 18 2
26 20 4
26 22 4
27 2 9
27 3 9
27 4 13
27 5 10
27 7 9
27 13 2
27 14 13
27 15 1
27 19 3
27 20 10
27 22 6
27 23 4
28 0 5
28 1 10
28 4 2
28 6 9
28 8 3
28 9 3
28 13 1
28 15 9
28 16 10
28 17 2
28 19 1
28 20 4
28 25 12
28 26 10
28 27 4
29 0 6
29 1 2
29 3 3
29 4 6
29 5 12
29 8 4
29 12 13
29 13 10
29 14 10
29 15 5
29 19 10
29 20 10
29 23 10
29 24 2
29 25 9
30 1 4
30 3 8
30 7 7
30 8 11
30 13 1
30 14 8
30 15 13
30 16 1
30 17 13
30 19 3
30 20 1
30 23 10
30 24 5
30 27 9
31 2 6
31 7 2
31 8 12
31 10 10
31 11 1
31 12 8
31 13 1
31 15 1
31 16 1
31 17 13
31 18 6
31 19 7
31 20 11
31 21 11
31 22 12
31 25 2
31 27 13
31 28 11
32 1 9
32 3 7
32 4 13
32 5 13
32 7 5
32 9 5
32 10 1
32 12 3
32 14 5
32 15 5
32 16 7
32 18 1
32 19 7
32 22 10
32 24 7
32 26 1
32 27 7
32 29 8
32 31 11
33 2 2
33 4 8
33 6 9
33 7 5
33 8 8
33 9 13
33 13 2
33 15 7
33 17 6
33 18 10
33 19 9
33 22 6
33 23 7
33 24 13
33 27 8
33 31 6
33 32 3
34 5 8
34 7 13
34 8 7
34 11 10
34 12 1
34 17 13
34 20 7
34 21 13
34 22 3
34 24 8
34 33 3
35 1 10
35 3 1
35 4 4
35 5 2
35 6 5
35 8 11
35 9 8
35 12 5
35 14 4
35 15 1
35 16 4
35 17 8
35 18 11
35 19 6
35 21 10
35 22 5
35 27 6
35 28 7
36 1 9
36 3 8
36 4 8
36 6 6
36 7 12
36 8 3
36 11 10
36 12 7
36 13 13
36 16 5
36 17 13
36 18 4
36 19 5
36 22 13
36 23 7
36 24 7
36 28 10
36 29 4
36 32 3
36 35 9
37 0 1
37 4 9
37 5 2
37 6 13
37 8 8
37 9 5
37 14 1
37 15 9
37 16 6
37 17 13
37 19 1
37 21 5
37 22 6
37 24 3
37 25 11
37 28 9
37 29 9
37 30 5
37 31 6
37 34 3
38 0 13
38 1 11
38 2 8
38 5 8
38 6 10
38 7 5
38 10 13
38 11 3
38 14 6
38 15 7
38 17 10
38 19 7
38 22 6
38 24 7
38 27 13
38 28 9
38 30 5
38 31 8
38 35 13
39 6 7
39 9 5
39 12 12
39 13 13
39 15 12
39 16 2
39 17 2
39 19 12
39 21 1
39 27 6
39 28 7
39 30 1
39 31 11
39 32 4
39 36 13
39 37 12
39 38 9
40 2 13
40 3 8
40 4 1
40 6 3
40 8 5
40 11 13
40 12 7
40 17 5
40 20 8
40 21 10
40 22 6
40 23 3
40 24 13
40 26 6
40 27 5
40 28 6
40 32 2
40 33 13
41 2 11
41 3 11
41 5 10
41 6 3
41 7 13
41 9 3
41 10 6
41 12 7
41 16 9
41 17 10
41 23 6
41 25 12
41 29 1
41 32 1
41 33 5
41 34 8
41 35 5
41 36 7
41 37 10
41 40 2
42 3 5
42 4 11
42 7 1
42 8 9
42 10 11
42 12 11
42 14 12
42 15 2
42 16 1
42 17 5
42 19 13
42 20 5
42 21 11
42 22 8
42 23 12
42 24 12
42 25 13
42 28 12
42 29 10
42 30 9
42 31 3
42 32 9
42 34 4
42 35 11
42 38 10
42 39 4
42 40 11
43 0 4
43 2 4
43 5 6
43 7 1
43 8 1
43 10 12
43 12 10
43 13 12
43 16 11
43 17 10
43 20 10
43 21 13
43 22 12
43 23 3
43 24 4
43 26 2
43 28 2
43 29 9
43 30 1
43 31 11
43 32 9
43 33 5
43 34 7
43 37 12
43 38 10
43 39 9
43 40 13
44 0 4
44 2 8
44 4 13
44 6 8
44 7 6
44 11 2
44 14 1
44 15 5
44 16 3
44 18 7
44 19 12
44 22 9
44 25 9
44 30 7
44 32 5
44 33 6
44 34 7
44 36 4
44 40 7
45 0 6
45 1 2
45 2 9
45 3 10
45 4 11
45 5 5
45 6 2
45 7 5
45 8 3
45 11 9
45 16 4
45 18 12
45 19 10
45 24 2
45 26 3
45 28 5
45 29 4
45 30 6
45 31 3
45 32 9
45 33 7
45 34 4
45 35 8
45 38 11
45 39 2
45 40 6
45 42 2
45 43 2
45 44 2
46 1 11
46 2 9
46 3 3
46 4 4
46 5 9
46 6 11
46 7 13
46 8 5
46 15 5
46 16 4
46 18 10
46 25 9
46 29 3
46 32 9
46 33 8
46 35 1
46 36 10
46 38 8
46 39 12
46 42 12
46 43 1
46 45 12
47 1 8
47 3 3
47 4 7
47 5 13
47 6 2
47 7 7
47 8 7
47 9 1
47 10 8
47 11 9
47 13 12
47 14 10
47 15 8
47 19 9
47 21 7
47 28 11
47 30 4
47 33 13
47 36 11
47 40 13
47 45 5
47 46 2
48 4 9
48 6 3
48 7 9
48 11 9
48 12 6
48 14 3
48 18 1
48 19 13
48 20 10
48 22 12
48 23 1
48 24 9
48 26 6
48 27 1
48 28 4
48 29 5
48 31 2
48 32 2
48 34 6
48 37 8
48 38 9
48 40 8
48 41 6
48 42 11
48 43 1
48 44 7
48 47 10
49 0 7
49 1 2
49 2 8
49 3 10
49 4 5
49 5 5
49 6 7
49 8 1
49 10 1
49 12 11
49 13 4
49 15 4
49 17 6
49 18 13
49 21 2
49 25 12
49 28 6
49 31 13
49 32 8
49 34 5
49 35 1
49 38 12
49 39 4
49 43 12
49 45 6
49 48 2
50 1 11
50 3 8
50 5 10
50 6 2
50 11 2
50 12 12
50 13 5
50 14 4
50 15 5
50 17 8
50 18 9
50 19 12
50 22 2
50 26 3
50 29 11
50 31 2
50 32 11
50 33 4
50 35 5
50 38 10
50 40 4
50 41 8
50 42 4
50 44 7
50 45 8
50 46 2
50 47 7
50 48 10
50 49 11
51 0 5
51 2 4
51 5 2
51 6 9
51 9 9
51 11 1
51 12 10
51 13 13
51 14 2
51 15 12
51 17 10
51 18 1
51 19 10
51 24 2
51 25 12
51 26 9
51 28 2
51 32 7
51 33 8
51 36 13
51 38 13
51 40 4
51 42 11
51 43 11
51 44 2
51 49 4
51 50 3
52 1 3
52 2 7
52 4 7
52 7 3
52 8 12
52 10 10
52 14 13
52 16 1
52 19 7
52 20 10
52 22 4
52 24 9
52 26 1
52 27 6
52 28 2
52 34 10
52 36 8
52 40 1
52 41 10
52 42 12
52 46 9
52 48 1
52 49 11
52 50 6
52 51 1
53 2 3
53 3 3
53 4 12
53 6 9
53 9 7
53 13 4
53 15 13
53 16 13
53 17 13
53 18 9
53 22 6
53 23 11
53 27 5
53 29 12
53 30 12
53 32 3
53 35 1
53 36 4
53 39 11
53 43 5
53 44 4
53 45 6
53 46 7
53 49 11
53 50 12
53 51 13
54 1 8
54 2 11
54 6 12
54 9 7
54 10 8
54 11 2
54 12 4
54 13 7
54 16 6
54 24 5
54 30 6
54 31 6
54 34 5
54 36 11
54 38 8
54 40 3
54 42 10
54 44 5
54 47 9
54 50 8
54 51 6
54 52 7
54 53 13
55 0 4
55 3 7
55 4 1
55 5 8
55 7 8
55 11 2
55 15 1
55 17 1
55 18 5
55 20 11
55 21 5
55 24 2
55 25 2
55 26 8
55 28 5
55 29 8
55 30 11
55 31 2
55 32 4
55 34 9
55 35 13
55 37 7
55 42 8
55 43 11
55 46 5
55 47 10
55 48 13
55 50 7
55 54 2
56 0 6
56 2 12
56 5 4
56 6 13
56 7 11
56 8 10
56 10 5
56 15 13
56 17 13
56 24 7
56 25 8
56 26 5
56 30 5
56 33 2
56 34 1
56 37 9
56 39 11
56 40 10
56 43 1
56 44 9
56 46 3
56 49 12
56 50 4
56 51 7
56 52 1
56 53 9
56 54 4
56 55 8
57 2 6
57 4 3
57 9 12
57 10 2
57 12 2
57 13 13
57 15 8
57 16 2
57 21 9
57 22 6
57 24 1
57 26 1
57 27 3
57 28 8
57 35 11
57 36 9
57 38 12
57 44 4
57 45 2
57 48 12
57 49 6
57 50 2
57 51 12
57 52 4
57 54 8
57 56 5
58 0 6
58 2 1
58 3 12
58 6 9
58 7 3
58 8 1
58 11 7
58 12 6
58 13 13
58 15 13
58 16 3
58 17 2
58 18 1
58 20 12
58 24 8
58 25 12
58 30 6
58 35 2
58 36 13
58 37 11
58 38 13
58 39 5
58 40 1
58 41 6
58 43 1
58 48 6
58 52 13
58 53 7
58 55 2
58 56 12
59 1 9
59 2 5
59 5 3
59 10 13
59 12 5
59 13 8
59 16 3
59 18 7
59 22 5
59 23 8
59 26 13
59 28 2
59 29 9
59 30 8
59 31 2
59 32 9
59 34 1
59 35 11
59 36 3
59 37 4
59 38 1
59 39 8
59 41 2
59 44 1
59 45 11
59 47 1
59 48 13
59 49 3
59 50 7
59 52 8
59 53 2
59 54 1
59 57 9
